p cnf 15 21
-1 2 0
-3 4 0
-5 6 0
-7 -1 1 0
-7 -1 1 0
-8 -1 3 0
-8 -3 1 0
-9 -1 5 0
-9 -5 1 0
-10 -3 1 0
-10 -1 3 0
-11 -3 3 0
-11 -3 3 0
-12 -3 5 0
-12 -5 3 0
-13 -5 1 0
-13 -1 5 0
-14 -5 3 0
-14 -3 5 0
-15 -5 5 0
-15 -5 5 0
